p cnf 242 508
-43 -80 49 77 0
-73 -53 81 82 0
-73 -53 81 -82 0
-73 -53 -81 83 0
-73 -53 -81 -83 0
58 -62 -32 69 0
-8 -50 53 -73 0
-40 1 -64 -2 0
-29 -37 18 -59 0
7 65 -67 -47 0
56 44 -54 68 0
28 -39 -4 -17 0
-27 -17 -33 -28 0
-47 -7 9 -66 0
52 -55 -60 36 0
-72 25 -30 61 0
6 24 84 85 0
6 24 84 -85 0
6 24 -84 86 0
6 24 -84 -86 0
-63 36 55 15 0
17 -28 87 88 0
17 -28 87 -88 0
17 -28 -87 89 0
17 -28 -87 -89 0
79 -11 90 91 0
79 -11 90 -91 0
79 -11 -90 92 0
79 -11 -90 -92 0
56 -76 -54 -12 0
62 68 44 32 0
67 -65 93 94 0
67 -65 93 -94 0
67 -65 -93 95 0
67 -65 -93 -95 0
-58 69 46 -19 0
-68 -56 -44 54 0
50 -58 69 -8 0
80 43 49 77 0
36 -57 55 -5 0
14 68 44 -78 0
-8 -76 -12 -50 0
70 -41 96 97 0
70 -41 96 -97 0
70 -41 -96 98 0
70 -41 -96 -98 0
-60 -70 41 52 0
-17 -28 66 -9 0
48 10 99 100 0
48 10 99 -100 0
48 10 -99 101 0
48 10 -99 -101 0
68 -30 -25 44 0
-3 -45 -20 16 0
-8 12 50 -76 0
-7 47 102 103 0
-7 47 102 -103 0
-7 47 -102 104 0
-7 47 -102 -104 0
-68 -56 -54 44 0
40 33 -1 27 0
60 105 106 108 0
60 105 106 -108 0
60 105 -106 109 0
60 105 -106 -109 0
60 -105 107 110 0
60 -105 107 -110 0
60 -105 -107 111 0
60 -105 -107 -111 0
-21 -56 54 13 0
72 3 61 -16 0
-15 63 -36 -55 0
18 37 -13 21 0
16 20 -45 3 0
-26 -35 112 113 0
-26 -35 112 -113 0
-26 -35 -112 114 0
-26 -35 -112 -114 0
29 33 27 -59 0
-31 71 -74 -51 0
72 61 45 20 0
14 -79 78 11 0
1 -64 2 40 0
-56 -13 -54 -21 0
-22 115 116 118 0
-22 115 116 -118 0
-22 115 -116 119 0
-22 115 -116 -119 0
-22 -115 117 120 0
-22 -115 117 -120 0
-22 -115 -117 121 0
-22 -115 -117 -121 0
-10 -51 -74 -48 0
76 -35 26 12 0
14 78 -4 -39 0
-5 34 57 38 0
74 51 122 123 0
74 51 122 -123 0
74 51 -122 124 0
74 51 -122 -124 0
31 71 5 57 0
78 -68 14 44 0
14 -79 -11 -78 0
-6 24 -21 13 0
53 15 73 63 0
9 -66 -49 43 0
17 27 33 28 0
-62 46 19 -32 0
61 -72 -39 -4 0
-53 20 45 73 0
-17 28 -42 23 0
-24 -10 6 48 0
-50 -8 -69 -58 0
-79 -26 35 -11 0
26 2 35 -64 0
72 25 30 61 0
-44 68 125 126 0
-44 68 125 -126 0
-44 68 -125 127 0
-44 68 -125 -127 0
-36 -55 -75 -22 0
72 -61 128 129 0
72 -61 128 -129 0
72 -61 -128 130 0
72 -61 -128 -130 0
-33 44 -27 68 0
-68 62 44 -32 0
14 46 -19 78 0
-36 55 131 132 0
-36 55 131 -132 0
-36 55 -131 133 0
-36 55 -131 -133 0
39 -4 72 61 0
35 -26 -12 -76 0
-9 66 -71 -31 0
40 12 -1 76 0
-46 -5 -57 -19 0
32 -54 62 56 0
-34 5 57 38 0
73 50 8 -53 0
34 -4 38 -39 0
-2 64 134 135 0
-2 64 134 -135 0
-2 64 -134 136 0
-2 64 -134 -136 0
-70 -22 41 75 0
63 78 -14 -15 0
43 49 18 -37 0
52 55 60 36 0
57 5 -55 -36 0
41 137 138 140 0
41 137 138 -140 0
41 137 -138 141 0
41 137 -138 -141 0
41 -137 139 142 0
41 -137 139 -142 0
41 -137 -139 143 0
41 -137 -139 -143 0
74 31 -51 71 0
-61 -72 -39 4 0
29 -59 64 2 0
12 76 -56 54 0
42 23 -6 24 0
-48 29 -59 10 0
60 62 52 32 0
-19 14 -46 -78 0
18 -21 -37 -13 0
-62 -32 -56 54 0
66 -47 9 7 0
-63 -73 15 53 0
52 -30 25 -60 0
10 46 -48 19 0
73 53 50 -8 0
46 -32 62 -19 0
-57 -71 -31 -5 0
-56 -54 -76 12 0
21 13 144 145 0
21 13 144 -145 0
21 13 -144 146 0
21 13 -144 -146 0
-69 -58 1 -40 0
77 34 80 38 0
-67 -38 -65 34 0
51 -31 -71 -74 0
63 36 -55 15 0
-71 31 147 148 0
-71 31 147 -148 0
-71 31 -147 149 0
-71 31 -147 -149 0
28 73 -53 17 0
11 -55 36 -79 0
37 -29 59 18 0
-21 13 -18 -37 0
54 56 150 151 0
54 56 150 -151 0
54 56 -150 152 0
54 56 -150 -152 0
-59 -29 -42 23 0
16 -71 -3 -31 0
-60 -32 62 52 0
5 -57 153 154 0
5 -57 153 -154 0
5 -57 -153 155 0
5 -57 -153 -155 0
39 4 156 157 0
39 4 156 -157 0
39 4 -156 158 0
39 4 -156 -158 0
-17 -23 -28 -42 0
4 -38 -39 34 0
-73 53 -28 -17 0
-50 8 159 160 0
-50 8 159 -160 0
-50 8 -159 161 0
-50 8 -159 -161 0
-60 -41 -52 -70 0
48 -10 -46 -19 0
-6 65 -24 -67 0
80 -77 13 -21 0
50 8 58 69 0
6 -23 -24 -42 0
-65 7 47 -67 0
33 27 -44 -68 0
56 -13 21 -54 0
-3 -16 162 163 0
-3 -16 162 -163 0
-3 -16 -162 164 0
-3 -16 -162 -164 0
-43 18 37 49 0
-16 10 -48 3 0
-28 -39 -17 4 0
4 14 -39 -78 0
-58 23 -42 69 0
57 36 -55 -5 0
-4 -8 -39 50 0
-74 -51 63 15 0
-42 -24 23 -6 0
51 -74 48 -10 0
-40 -76 1 -12 0
28 17 39 -4 0
3 16 -10 -48 0
-45 -72 -20 -61 0
36 -79 55 -11 0
-66 31 71 9 0
-43 -49 165 166 0
-43 -49 165 -166 0
-43 -49 -165 167 0
-43 -49 -165 -167 0
-70 41 7 -47 0
66 49 -9 -43 0
-23 -58 -42 -69 0
42 23 17 28 0
-64 -11 -79 -2 0
67 -7 65 -47 0
-27 -29 -33 59 0
49 43 66 9 0
74 45 20 -51 0
79 11 2 64 0
-22 52 75 -60 0
-80 -5 77 -57 0
37 18 -40 1 0
11 26 -79 35 0
45 -20 168 169 0
45 -20 168 -169 0
45 -20 -168 170 0
45 -20 -168 -170 0
77 80 -5 57 0
11 79 -14 78 0
-76 35 12 26 0
-65 -67 -24 6 0
78 39 -14 -4 0
78 19 46 -14 0
-13 21 6 -24 0
11 79 -55 -36 0
22 21 75 -13 0
76 12 50 8 0
-48 24 -6 10 0
79 26 -35 11 0
73 -53 63 -15 0
28 9 17 -66 0
52 70 60 41 0
55 22 75 36 0
35 -56 26 -54 0
-2 49 -64 -43 0
30 -25 171 172 0
30 -25 171 -172 0
30 -25 -171 173 0
30 -25 -171 -173 0
-66 -9 174 175 0
-66 -9 174 -175 0
-66 -9 -174 176 0
-66 -9 -174 -176 0
49 3 16 43 0
80 -77 -53 73 0
-61 -72 16 -3 0
50 39 8 -4 0
15 -63 -74 51 0
28 9 66 -17 0
31 71 -41 -70 0
-25 -30 -76 -12 0
-52 60 177 178 0
-52 60 177 -178 0
-52 60 -177 179 0
-52 60 -177 -179 0
-41 -47 -70 -7 0
-52 180 181 183 0
-52 180 181 -183 0
-52 180 -181 184 0
-52 180 -181 -184 0
-52 -180 182 185 0
-52 -180 182 -185 0
-52 -180 -182 186 0
-52 -180 -182 -186 0
7 -24 -6 -47 0
26 -56 54 -35 0
-15 74 -51 63 0
-46 32 62 -19 0
49 -3 16 -43 0
-18 37 187 188 0
-18 37 187 -188 0
-18 37 -187 189 0
-18 37 -187 -189 0
69 -58 62 -32 0
-26 18 37 35 0
3 71 16 -31 0
40 64 2 -1 0
-75 -21 13 -22 0
70 190 191 193 0
70 190 191 -193 0
70 190 -191 194 0
70 190 -191 -194 0
70 -190 192 195 0
70 -190 192 -195 0
70 -190 -192 196 0
70 -190 -192 -196 0
51 -74 -67 -65 0
-59 -18 -37 29 0
40 -1 -37 -18 0
-41 63 -15 -70 0
-37 -18 43 -49 0
-52 -36 -60 -55 0
70 -63 15 41 0
46 -5 57 -19 0
-66 79 11 9 0
34 -38 77 -80 0
78 -68 -44 -14 0
1 40 69 -58 0
-29 -64 -2 59 0
27 -33 197 198 0
27 -33 197 -198 0
27 -33 -197 199 0
27 -33 -197 -199 0
34 38 65 -67 0
-5 -31 57 71 0
38 7 34 -47 0
66 9 11 -79 0
22 -25 75 -30 0
14 -63 15 -78 0
1 -27 33 40 0
-19 -58 -46 -69 0
-38 -57 -5 34 0
26 -37 -18 -35 0
-34 80 38 -77 0
61 72 42 23 0
70 -71 41 -31 0
2 49 43 -64 0
51 -45 -20 -74 0
-69 62 -58 32 0
-77 80 -49 43 0
-1 -40 200 201 0
-1 -40 200 -201 0
-1 -40 -200 202 0
-1 -40 -200 -202 0
-52 -60 30 25 0
33 44 -68 -27 0
29 59 203 204 0
29 59 203 -204 0
29 59 -203 205 0
29 59 -203 -205 0
11 -64 -79 2 0
-59 42 23 29 0
-80 21 77 -13 0
-10 48 -29 59 0
-12 76 206 207 0
-12 76 206 -207 0
-12 76 -206 208 0
-12 76 -206 -208 0
63 15 41 -70 0
26 -35 2 64 0
-68 25 -30 44 0
-72 -45 61 20 0
67 38 65 -34 0
-24 -6 -21 -13 0
67 -51 74 65 0
-60 -62 -32 -52 0
-75 22 209 210 0
-75 22 209 -210 0
-75 22 -209 211 0
-75 22 -209 -211 0
7 41 47 70 0
-80 -77 212 213 0
-80 -77 212 -213 0
-80 -77 -212 214 0
-80 -77 -212 -214 0
25 30 76 12 0
-62 32 215 216 0
-62 32 215 -216 0
-62 32 -215 217 0
-62 32 -215 -217 0
62 -54 -56 -32 0
-17 -27 33 28 0
-29 -59 -64 2 0
-48 -19 46 -10 0
80 -77 5 57 0
25 30 -68 -44 0
-9 7 66 47 0
-22 -75 -52 -60 0
80 -13 -21 77 0
-45 -73 53 -20 0
70 22 75 41 0
73 28 53 -17 0
-27 -50 -33 -8 0
35 -37 18 26 0
67 -6 24 65 0
-63 -15 218 219 0
-63 -15 218 -219 0
-63 -15 -218 220 0
-63 -15 -218 -220 0
47 -24 7 6 0
-11 -79 -9 66 0
-31 -70 71 41 0
-22 -75 30 25 0
-61 -23 -72 -42 0
-27 -8 50 33 0
42 -23 221 222 0
42 -23 221 -222 0
42 -23 -221 223 0
42 -23 -221 -223 0
20 -16 3 45 0
-70 -22 -75 -41 0
-2 35 -64 -26 0
-51 20 -74 -45 0
-49 64 2 43 0
-22 36 75 -55 0
73 -45 20 53 0
56 35 -54 -26 0
-27 33 -29 -59 0
-22 75 -13 -21 0
-78 -14 224 225 0
-78 -14 224 -225 0
-78 -14 -224 226 0
-78 -14 -224 -226 0
-7 38 -47 -34 0
12 40 -76 1 0
53 -80 -73 77 0
-45 -67 -65 -20 0
-34 38 39 -4 0
-75 227 228 230 0
-75 227 228 -230 0
-75 227 -228 231 0
-75 227 -228 -231 0
-75 -227 229 232 0
-75 -227 229 -232 0
-75 -227 -229 233 0
-75 -227 -229 -233 0
-16 31 71 3 0
-30 -25 60 52 0
-38 -34 234 235 0
-38 -34 234 -235 0
-38 -34 -234 236 0
-38 -34 -234 -236 0
22 75 60 52 0
19 57 5 46 0
-3 -10 16 48 0
-32 -44 -68 -62 0
-69 58 237 238 0
-69 58 237 -238 0
-69 58 -237 239 0
-69 58 -237 -239 0
7 -38 34 47 0
58 69 19 46 0
80 73 53 77 0
58 69 40 -1 0
16 3 61 -72 0
20 -45 -67 65 0
-46 19 240 241 0
-46 19 240 -241 0
-46 19 -240 242 0
-46 19 -240 -242 0
-48 -6 -24 -10 0
42 58 23 69 0
25 -30 -76 12 0
-6 -47 24 -7 0
15 63 78 14 0
33 50 8 27 0
66 -31 9 71 0
-67 -74 -51 65 0
-48 -10 -59 -29 0
18 -37 1 40 0
-39 4 -50 -8 0
-27 -33 1 -40 0
-61 -72 -30 -25 0
-30 75 25 -22 0
74 -48 10 -51 0
-72 -42 61 23 0
43 -16 -49 3 0
45 67 20 65 0
59 -42 -23 -29 0

